n=10;
hearts=30;
clubs=26;
spades=53;
diamonds=34;
blocked=1;
m=array2d(1..n, 1..n,[
	_,2,_,_,_,_,_,_,_,_,
	3,_,_,5,_,_,_,_,_,_,
	_,_,_,_,_,_,_,_,_,_,
	_,_,_,_,_,_,_,_,_,_,
	_,_,_,_,_,_,_,_,_,_,
	_,_,_,_,_,_,_,_,_,_,
	_,_,_,_,1,_,_,_,_,1,
	_,3,_,_,_,_,_,_,_,2,
	_,_,_,_,_,_,_,_,_,_,
	_,_,_,_,_,_,_,_,_,_
]);
